Academic license - for non-commercial use only - expires 2022-11-10
Using license file /home/benedond/Apps/gurobi/gurobi950/gurobi.lic
Using gurobi.env file
Set parameter Threads to value 1
Changed value of parameter TimeLimit to 1200.0
   Prev: inf  Min: 0.0  Max: inf  Default: inf
Gurobi Optimizer version 9.1.2 build v9.1.2rc0 (linux64)
Thread count: 2 physical cores, 4 logical processors, using up to 1 threads
Optimize a model with 1193 rows, 1082 columns and 5154 nonzeros
Model fingerprint: 0x3a203a7e
Variable types: 44 continuous, 1038 integer (1038 binary)
Coefficient statistics:
  Matrix range     [2e-01, 4e+02]
  Objective range  [2e-02, 4e-01]
  Bounds range     [1e+00, 1e+00]
  RHS range        [1e+00, 1e+03]
Found heuristic solution: objective 4.1084243
Presolve removed 143 rows and 69 columns
Presolve time: 0.03s
Presolved: 1050 rows, 1013 columns, 4735 nonzeros
Variable types: 44 continuous, 969 integer (969 binary)

Root relaxation: objective 2.129463e+00, 1040 iterations, 0.02 seconds

    Nodes    |    Current Node    |     Objective Bounds      |     Work
 Expl Unexpl |  Obj  Depth IntInf | Incumbent    BestBd   Gap | It/Node Time

     0     0    2.12946    0   92    4.10842    2.12946  48.2%     -    0s
H    0     0                       3.7782223    2.12946  43.6%     -    0s
H    0     0                       3.2052526    2.12946  33.6%     -    0s
H    0     0                       3.1730202    2.12946  32.9%     -    0s
     0     0    2.27954    0   75    3.17302    2.27954  28.2%     -    0s
H    0     0                       3.1358990    2.27954  27.3%     -    0s
     0     0    2.34022    0   89    3.13590    2.34022  25.4%     -    0s
H    0     0                       3.0405253    2.34022  23.0%     -    0s
H    0     0                       3.0197172    2.34022  22.5%     -    0s
     0     0    2.34615    0   70    3.01972    2.34615  22.3%     -    0s
     0     0    2.43238    0   77    3.01972    2.43238  19.5%     -    0s
     0     0    2.45058    0   63    3.01972    2.45058  18.8%     -    0s
     0     0    2.48130    0   76    3.01972    2.48130  17.8%     -    0s
H    0     0                       3.0137778    2.48130  17.7%     -    0s
     0     0    2.49688    0   93    3.01378    2.49688  17.2%     -    0s
     0     0    2.50002    0   71    3.01378    2.50002  17.0%     -    0s
     0     0    2.50013    0   76    3.01378    2.50013  17.0%     -    0s
     0     0    2.50621    0   80    3.01378    2.50621  16.8%     -    0s
     0     0    2.50732    0   89    3.01378    2.50732  16.8%     -    0s
     0     0    2.50762    0  102    3.01378    2.50762  16.8%     -    0s
     0     0    2.50766    0  101    3.01378    2.50766  16.8%     -    0s
     0     0    2.51681    0  110    3.01378    2.51681  16.5%     -    0s
H    0     0                       2.9970707    2.51681  16.0%     -    0s
     0     0    2.51750    0  117    2.99707    2.51750  16.0%     -    0s
     0     0    2.51765    0  108    2.99707    2.51765  16.0%     -    0s
     0     0    2.52496    0   85    2.99707    2.52496  15.8%     -    0s
     0     0    2.52561    0   88    2.99707    2.52561  15.7%     -    0s
     0     0    2.52570    0  106    2.99707    2.52570  15.7%     -    0s
     0     0    2.54358    0   91    2.99707    2.54358  15.1%     -    0s
H    0     0                       2.9151111    2.54358  12.7%     -    0s
     0     0    2.54471    0  102    2.91511    2.54471  12.7%     -    0s
     0     0    2.54488    0   87    2.91511    2.54488  12.7%     -    0s
     0     0    2.55399    0  111    2.91511    2.55399  12.4%     -    0s
     0     0    2.55530    0  123    2.91511    2.55530  12.3%     -    0s
     0     0    2.55597    0  130    2.91511    2.55597  12.3%     -    0s
     0     0    2.55606    0  130    2.91511    2.55606  12.3%     -    0s
     0     0    2.56202    0  111    2.91511    2.56202  12.1%     -    0s
     0     0    2.56410    0  112    2.91511    2.56410  12.0%     -    0s
     0     0    2.56560    0  112    2.91511    2.56560  12.0%     -    0s
     0     0    2.56712    0  108    2.91511    2.56712  11.9%     -    0s
     0     0    2.56714    0  119    2.91511    2.56714  11.9%     -    0s
     0     0    2.57297    0  105    2.91511    2.57297  11.7%     -    0s
     0     0    2.57310    0  103    2.91511    2.57310  11.7%     -    0s
     0     0    2.57480    0  120    2.91511    2.57480  11.7%     -    0s
     0     0    2.57480    0  117    2.91511    2.57480  11.7%     -    0s
H    0     0                       2.8942727    2.57501  11.0%     -    0s
     0     2    2.57501    0  114    2.89427    2.57501  11.0%     -    0s
H   52    36                       2.8910505    2.63294  8.93%  91.5    1s
*  359   137              35       2.8509091    2.66530  6.51%  61.4    1s
*  368   130              41       2.8441919    2.66530  6.29%  60.0    1s
  2084   182     cutoff   32         2.84419    2.81158  1.15%  44.3    5s
* 2352    60              23       2.8409293    2.83137  0.34%  41.2    5s
* 2389    15              26       2.8380505    2.83568  0.08%  40.8    5s

Cutting planes:
  Gomory: 11
  Cover: 75
  Implied bound: 43
  Clique: 17
  MIR: 175
  StrongCG: 8
  GUB cover: 4
  Inf proof: 1
  Mod-K: 1
  RLT: 16
  Relax-and-lift: 234

Explored 2404 nodes (102418 simplex iterations) in 5.28 seconds
Thread count was 1 (of 4 available processors)

Solution count 10: 2.83805 2.84093 2.84419 ... 3.01972

Optimal solution found (tolerance 1.00e-04)
Best objective 2.838050501034e+00, best bound 2.837916987224e+00, gap 0.0047%
